0 4755
2401 4670
4802 4596
7203 4534
9604 4483
12005 4436
14406 4403
16807 4368
19208 4343
21609 4315
24010 4294
26411 4269
28812 4252
31213 4229
33614 4208
36015 4189
38416 4173
40817 4160
43218 4154
45619 4125
48020 4111
50421 4101
52822 4086
55223 4084
57624 4075
60025 4065
62426 4058
64827 4051
67228 4045
